p cnf 25 72
16 17 18 0
21 22 0
-1 -4 0
-1 -11 0
-1 -14 0
-1 -16 0
-1 -21 0
-4 -11 0
-4 -14 0
-4 -16 0
-4 -21 0
-11 -14 0
-11 -16 0
-11 -21 0
-14 -16 0
-14 -21 0
-16 -21 0
-2 -5 0
-2 -7 0
-2 -9 0
-2 -12 0
-2 -15 0
-2 -19 0
-2 -23 0
-5 -7 0
-5 -9 0
-5 -12 0
-5 -15 0
-5 -19 0
-5 -23 0
-7 -9 0
-7 -12 0
-7 -15 0
-7 -19 0
-7 -23 0
-9 -12 0
-9 -15 0
-9 -19 0
-9 -23 0
-12 -15 0
-12 -19 0
-12 -23 0
-15 -19 0
-15 -23 0
-19 -23 0
-8 -17 0
-8 -22 0
-8 -24 0
-17 -22 0
-17 -24 0
-22 -24 0
-3 -6 0
-3 -10 0
-3 -13 0
-3 -18 0
-3 -20 0
-3 -25 0
-6 -10 0
-6 -13 0
-6 -18 0
-6 -20 0
-6 -25 0
-10 -13 0
-10 -18 0
-10 -20 0
-10 -25 0
-13 -18 0
-13 -20 0
-13 -25 0
-18 -20 0
-18 -25 0
-20 -25 0
